; benchmark generated from python API
(set-info :status unknown)
(declare-fun S_0 () Real)
(declare-fun S_3 () Real)
(declare-fun S_1 () Real)
(declare-fun A_3 () Real)
(declare-fun S_4 () Real)
(declare-fun L_1 () Real)
(declare-fun A_0 () Real)
(declare-fun L_0 () Real)
(declare-fun S_2 () Real)
(declare-fun A_4 () Real)
(declare-fun L_2 () Real)
(declare-fun L0 () Real)
(declare-fun A_2 () Real)
(declare-fun A_1 () Real)
(assert
 (let (($x4351 (<= (+ L_1 S_4 (* (- 1.0) A_3) (* (- (/ 1.0 2.0)) S_3) (* (/ 1.0 2.0) S_0)) 0.0)))
 (let (($x7453 (<= (+ L_0 (* 2.0 S_1) (* (- 1.0) S_3) (* (- 1.0) A_0)) 0.0)))
 (let (($x6402 (<= (+ S_1 (* (- 1.0) S_3)) (- 5.0))))
 (let (($x4730 (<= (+ S_0 (* (- 1.0) S_2)) (- 5.0))))
 (let (($x5487 (<= (+ L_2 S_4 (* (- 1.0) A_4)) 0.0)))
 (let (($x37 (>= L0 0.0)))
 (let (($x1031 (<= (+ (* (- 1.0) A_0) L_0 S_0) 0.0)))
 (let (($x4031 (<= (+ (* (- 1.0) L_1) (* (- 1.0) S_4) A_3) 0.0)))
 (let (($x7007 (or $x4031 (<= (+ (* (- 1.0) S_4) (* 2.0 S_1) (* (- 1.0) S_0)) 0.0))))
 (let (($x6984 (or (<= (+ (* (- 3.0) S_4) (* (- 1.0) S_0) (* 4.0 S_2)) 0.0) $x4031)))
 (let ((?x846 (* (- 1.0) S_0)))
 (let ((?x1789 (* (- 2.0) L_1)))
 (let ((?x6524 (* (- 2.0) A_2)))
 (let ((?x1460 (* 2.0 L_2)))
 (let ((?x1087 (* 2.0 A_1)))
 (let (($x64 (= L_2 L_1)))
 (let ((?x2165 (* (- 3.0) L_1)))
 (let ((?x3601 (* (- 3.0) A_2)))
 (let ((?x837 (* 3.0 L_2)))
 (let ((?x2149 (* 3.0 A_1)))
 (let (($x7060 (<= (+ L_0 (* (- 2.0) S_4) (* 3.0 S_2) (* (- 1.0) A_0)) 0.0)))
 (let (($x5958 (or (<= (+ (* (- 2.0) S_4) (* (- 1.0) S_1) (* 3.0 S_2)) 0.0) $x4031)))
 (let ((?x1794 (* (- 4.0) L_1)))
 (let ((?x5962 (* (- 4.0) A_2)))
 (let ((?x5213 (* 4.0 L_2)))
 (let ((?x3080 (* 4.0 A_1)))
 (let ((?x3869 (* (- 5.0) L_1)))
 (let ((?x3867 (* (- 5.0) A_2)))
 (let ((?x3594 (* 5.0 L_2)))
 (let ((?x3649 (* 5.0 A_1)))
 (let (($x3757 (or $x64 (<= (+ ?x1087 ?x1460 ?x6524 ?x1789 L_0 (* (- 1.0) A_0) S_2) 0.0))))
 (let (($x5375 (or $x64 (<= (+ ?x1087 ?x1460 ?x6524 ?x1789 S_2 (* (- 1.0) S_1)) 0.0))))
 (let (($x1046 (<= 0.0 (+ (* (- 1.0) L_1) L_0))))
 (let ((?x502 (* (- 1.0) S_4)))
 (let ((?x1825 (* 3.0 L_1)))
 (let ((?x1833 (* 3.0 A_2)))
 (let ((?x5661 (* (- 3.0) L_2)))
 (let ((?x6586 (* (- 3.0) A_1)))
 (let (($x1289 (<= (+ L_0 (* (- (/ 1.0 2.0)) S_4) (* (/ 3.0 2.0) S_1) (* (- 1.0) A_0)) 0.0)))
 (let (($x219 (or $x64 (<= (+ ?x2149 ?x837 ?x3601 ?x2165 L_0 S_3 (* (- 1.0) A_0)) 0.0))))
 (let (($x1130 (or $x64 (<= (+ ?x1087 ?x1460 ?x6524 ?x1789 S_3 (* (- 1.0) S_2)) 0.0))))
 (let (($x2984 (or $x64 (<= (+ ?x2149 ?x837 ?x3601 ?x2165 S_3 (* (- 1.0) S_1)) 0.0))))
 (let (($x1947 (= L_2 L_0)))
 (let (($x1689 (not (= L_0 L_1))))
 (let (($x288 (or $x1689 $x1947 (<= (+ ?x3649 ?x3594 ?x3867 (* (- 5.0) L_0) S_4 ?x846) 0.0))))
 (let (($x7438 (<= (+ ?x1087 ?x1460 ?x6524 (* (- 2.0) L_0) S_3 (* (- 1.0) S_2)) 0.0)))
 (let ((?x314 (* (- 1.0) S_2)))
 (let ((?x539 (* (- 1.0) L_2)))
 (let ((?x212 (* (- 1.0) A_1)))
 (let (($x3791 (or $x64 (<= (+ ?x3080 ?x5213 ?x5962 ?x1794 S_4 (* (- 1.0) S_1)) 0.0))))
 (let (($x6975 (<= (+ ?x1087 ?x1460 ?x6524 (* (- 2.0) L_0) S_2 (* (- 1.0) S_1)) 0.0)))
 (let (($x5338 (<= (+ ?x2149 ?x837 ?x3601 (* (- 2.0) L_0) S_3 (* (- 1.0) A_0)) 0.0)))
 (let (($x806 (or $x64 (<= (+ L_0 ?x3080 ?x5213 ?x5962 ?x1794 S_4 (* (- 1.0) A_0)) 0.0))))
 (let ((?x508 (* (- 1.0) S_3)))
 (let ((?x1198 (* 2.0 L_1)))
 (let ((?x4453 (* 2.0 A_2)))
 (let ((?x4332 (* (- 2.0) L_2)))
 (let ((?x7255 (* (- 2.0) A_1)))
 (let ((?x1029 (* (- 1.0) A_0)))
 (let ((?x500 (* (- 1.0) L_1)))
 (let ((?x216 (* (- 1.0) A_2)))
 (let (($x54 (= L_1 L_0)))
 (let (($x808 (or $x54 (not $x1046))))
 (let (($x1920 (or $x64 (not (<= 0.0 (+ L_1 ?x539))))))
 (let ((?x501 (+ A_1 ?x500)))
 (let (($x553 (<= ?x501 S_4)))
 (let (($x771 (<= (+ A_0 (* (- 1.0) L_0)) S_3)))
 (let (($x885 (not (<= ?x501 S_3))))
 (let (($x123 (>= A_2 A_1)))
 (let (($x117 (>= S_3 S_2)))
 (let (($x114 (>= S_2 S_1)))
 (let (($x111 (>= S_1 S_0)))
 (let (($x36 (>= L_0 L0)))
 (let (($x125 (>= A_4 A_3)))
 (let (($x124 (>= A_3 A_2)))
 (and $x124 $x125 $x36 $x111 $x114 $x117 $x123 $x885 $x771 $x553 $x1920 $x808 (or $x64 (<= (+ ?x1087 ?x1460 ?x6524 ?x1789 ?x508 S_4) 0.0)) (or $x64 (<= (+ A_1 L_2 ?x216 ?x500 L_0 ?x1029 S_1) 0.0)) (or $x1046 (<= (+ ?x212 ?x539 A_2 L_1 ?x502 S_2) 0.0)) (or (<= (+ ?x7255 ?x4332 ?x4453 ?x1198 ?x502 S_1) 0.0) $x1046) (or $x1046 (<= (+ ?x212 ?x539 A_2 L_1 ?x508 S_1) 0.0)) (or $x1046 (<= (+ ?x7255 ?x4332 ?x4453 ?x1198 ?x508 S_0) 0.0)) (or $x64 (>= (+ ?x212 ?x539 A_2 L_1) 5.0)) $x806 (or $x64 (<= (+ ?x2149 ?x837 ?x3601 ?x2165 S_4 ?x314) 0.0)) (or $x1689 $x1947 $x5338) (or $x1689 $x1947 $x6975) $x3791 (or $x1046 (<= (+ ?x212 ?x539 A_2 L_1 ?x314 S_0) 0.0)) (or $x1689 $x1947 $x7438) $x288 $x2984 $x1130 $x219 (or (<= (+ (* (- (/ 1.0 3.0)) S_4) (* (/ 1.0 3.0) S_0)) (- 5.0)) $x4031) (or (<= (+ (* (- (/ 1.0 2.0)) S_4) (* (/ 1.0 2.0) S_1)) (- 5.0)) $x4031) (or $x1289 $x4031) (or (<= (+ ?x6586 ?x5661 ?x1833 ?x1825 ?x502 S_0) 0.0) $x1046) $x5375 $x3757 (or $x64 (<= (+ ?x3649 ?x3594 ?x3867 ?x3869 S_4 ?x846) 0.0)) (or $x64 (<= (+ ?x3080 ?x5213 ?x5962 ?x1794 S_3 ?x846) 0.0)) (or (<= (+ ?x502 S_2) (- 5.0)) $x4031) $x5958 (or $x4031 $x7060) (or $x64 (<= (+ ?x2149 ?x837 ?x3601 ?x2165 S_2 ?x846) 0.0)) (or $x64 (<= (+ ?x1087 ?x1460 ?x6524 ?x1789 ?x846 S_1) 0.0)) $x6984 $x7007 $x1031 $x37 $x5487 $x4730 (<= (+ S_3 (* 2.0 S_0) (* (- 3.0) S_2)) 0.0) (<= (+ S_4 (* 3.0 S_0) (* (- 4.0) S_2)) 0.0) (<= (+ L_1 S_4 (* (- 1.0) A_3) S_0 ?x314) 0.0) (<= (+ S_4 (* (- 2.0) S_3) S_0) 0.0) (<= (+ (* (- (/ 1.0 2.0)) S_3) (* (/ 1.0 2.0) S_0)) (- 5.0)) $x6402 (<= (+ S_4 (* 2.0 S_1) (* (- 3.0) S_3)) 0.0) $x7453 (<= (+ L_1 S_4 (* (- 1.0) A_3) S_1 ?x508) 0.0) $x4351 (<= (+ (* 3.0 S_1) (* (- 2.0) S_3) ?x846) 0.0))))))))))))))))))))))))))))))))))))))))))))))))))))))))))))))))))))))))))))))
(check-sat)
